NAME : a280
COMMENT : Tour length 3822
TYPE : TOUR
DIMENSION : 280
TOUR_SECTION
1
280
3
279
278
277
276
275
274
273
272
271
16
17
18
19
20
21
128
127
126
125
124
123
122
121
120
119
157
158
159
160
175
161
162
163
164
165
188
189
190
191
192
194
197
198
199
145
146
147
148
139
138
137
136
135
134
270
269
268
267
266
140
141
142
143
144
200
201
196
195
222
223
224
225
226
227
228
229
230
251
250
249
256
257
263
264
265
149
150
178
177
176
181
182
183
184
185
187
186
193
202
203
204
205
206
208
253
254
258
259
260
261
262
255
252
209
210
211
214
215
218
219
221
220
217
216
213
212
207
248
247
245
246
231
232
233
234
244
243
242
241
240
239
238
237
236
235
180
179
156
153
155
154
129
130
131
132
133
152
151
174
173
106
105
104
172
171
170
169
101
168
167
166
118
117
115
114
111
110
108
116
113
112
109
90
91
92
103
102
100
99
98
97
96
95
94
93
89
88
87
86
85
84
83
82
81
80
79
76
78
77
75
74
73
72
71
70
69
68
67
66
65
64
63
62
61
60
43
42
41
40
39
38
37
59
58
57
56
55
54
53
52
51
50
49
48
47
46
45
44
36
35
34
33
32
31
30
29
28
27
26
22
25
23
24
14
13
12
11
10
8
7
9
15
6
5
4
2
107
1
-1
EOF